n_res = 4;
rc = [ 9, 25, 17, 15 ];
n_tasks = 30;
d = [ 10, 9, 3, 5, 5, 1, 1, 5, 5, 6, 4, 10, 4, 10, 1, 5, 4, 8, 3, 8, 4, 1, 4, 4, 1, 7, 4, 2, 1, 2 ];
rr = [| 9, 9, 9, 9, 9, 9, 9, 9, 9, 9, 9, 9, 9, 9, 9, 9, 9, 9, 9, 9, 9, 9, 9, 9, 9, 9, 9, 9, 9, 9
      | 25, 25, 25, 25, 25, 25, 25, 25, 25, 25, 25, 25, 25, 25, 25, 25, 25, 25, 25, 25, 25, 25, 25, 25, 25, 25, 25, 25, 25, 25
      | 17, 17, 17, 17, 17, 17, 17, 17, 17, 17, 17, 17, 17, 17, 17, 17, 17, 17, 17, 17, 17, 17, 17, 17, 17, 17, 17, 17, 17, 17
      | 15, 15, 15, 15, 15, 15, 15, 15, 15, 15, 15, 15, 15, 15, 15, 15, 15, 15, 15, 15, 15, 15, 15, 15, 15, 15, 15, 15, 15, 15|];
suc = [ { 14, 15 },
       { 4, 6, 7 },
       { 5 },
       { 9, 16, 28 },
       { 8, 9, 13 },
       { 12 },
       { 8, 11 },
       { 10, 19, 25 },
       { 15 },
       { 22 },
       { 12, 14, 16 },
       { 17, 22 },
       { 19, 21, 26 },
       { 18, 20, 24 },
       { 24, 30 },
       { 17, 20, 29 },
       { 19 },
       { 23, 25, 28 },
       { 30 },
       { 25 },
       { 23, 27 },
       { 23, 24, 27 },
       { 29 },
       { 29 },
       { 30 },
       { 27 },
       { 28 },
       {  },
       {  },
       {  } ];
